
  22   10
  10   10   10   10   10   10   10   10   10   10

   0   0   0   0   0   0   0   0   0   0   0   2 2 4 
   9   0   0   0   0  10   0   0   0   0   0   2 7 3 
   5   0   0   0   0   0  10   0   0   0   0   1 5 
  10   0  10   0   0   0   0   0   0   0   0   1 5 
   8   0   0  10   0   0   0   0   0   0   0   3 13 10 6 
   5   0   0   0   0   0   0   0  10   0   0   3 17 11 8 
   6   0   0   0   0   0   0  10   0   0   0   3 13 12 9 
   2   0   0   0   0   0   0   0   0   0  10   2 20 9 
   8   0   0   0   0   0  10   0   0   0   0   2 19 14 
   3   0   0   0   0   0   0  10   0   0   0   2 20 12 
   1   0   0   0   0  10   0   0   0   0   0   2 19 15 
  10   0   0   0   0   0  10   0   0   0   0   3 21 19 18 
  10   0   0  10   0   0   0   0   0   0   0   2 20 16 
   3   0   0   0   0   0   0  10   0   0   0   1 15 
   9   0   0  10   0   0   0   0   0   0   0   1 16 
   1   0   0   0   0   0   0   0   0  10   0   1 18 
   5   0   0   0   0   0  10   0   0   0   0   1 20 
   4   0   0   0   0   0   0  10   0   0   0   1 22
   1   0  10   0   0   0   0   0   0   0   0   1 22
   1   0   0   0   0  10   0   0   0   0   0   1 22
   7   0   0   0   0  10   0   0   0   0   0   1 22
   0   0   0   0   0   0   0   0   0   0   0   0 
